StudentsNr = 10;
InstructorsNr = 51;
DaysNr = 1;
SlotsPerDay = 20;
AvailabilitySlotsLenght = 10;
RoomNr = 1;
ProgrammNr = 1;
DegreeNr = 3;
RolesNr = 1;
CoursesNr = 5;
InstructorsProgramm = [{1}, {1}, {1}, {1}, {1}, {1}, {1}, {1}, {1}, {1}, {1}, {1}, {1}, {1}, {1}, {1}, {1}, {1}, {1}, {1}, {1}, {1}, {1}, {1}, {1}, {1}, {1}, {1}, {1}, {1}, {1}, {1}, {1}, {1}, {1}, {1}, {1}, {1}, {1}, {1}, {1}, {1}, {1}, {1}, {1}, {1}, {1}, {1}, {1}, {1}, {1}];
InstructorRolesPerProgramm = [|{1, 4, 7, 8, 14, 15, 16, 17, 20, 23, 25, 27, 30, 32, 34, 36, 37, 39, 40, 41, 47, 48, 49, 50}|];
InstructorsAvailability = [|1, 1, |1, 0, |0, 0, |1, 1, |0, 1, |1, 1, |1, 1, |0, 0, |0, 1, |1, 1, |1, 1, |1, 1, |0, 0, |1, 0, |0, 1, |0, 1, |1, 1, |1, 1, |1, 1, |0, 1, |0, 1, |1, 0, |0, 0, |0, 0, |1, 1, |1, 1, |0, 1, |1, 1, |0, 1, |0, 1, |0, 1, |1, 1, |1, 0, |0, 1, |1, 1, |1, 0, |0, 1, |0, 1, |0, 1, |1, 1, |1, 1, |0, 1, |1, 1, |0, 1, |0, 1, |0, 1, |0, 1, |1, 1, |1, 1, |0, 1, |1, 1|];
StudentsProgramm = [1, 1, 1, 1, 1, 1, 1, 1, 1, 1];
StudentsDegree = [1, 1, 1, 1, 1, 3, 3, 3, 1, 1];
StudentsSupervisorId = [39, 21, 51, 4, 16, 21, 25, 39, 27, 49];
StudentsCourseIds = [{2, 3}, {1, 3}, {2, 3}, {1, 4}, {3, 4}, {1, 2, 3}, {2, 3, 5}, {1, 2, 4}, {3, 4}, {3, 5}];
StudentsAvailability = [|1, 1, |1, 1, |0, 0, |1, 1, |1, 1, |1, 1, |1, 1, |0, 1, |0, 0, |0, 1|];
TheoryticalMinCard = [0, 0, 0, 0, 0, 0, 0, 0, 0, 0];
CoursesInstructorIds = [{4, 7, 11, 12, 13, 14, 16, 18, 19, 20, 21, 23, 26, 27, 30, 31, 33, 34, 35, 39, 43, 44, 48, 49, 50, 51}, {1, 3, 9, 27, 29, 30, 31, 33, 36, 40, 41, 42, 45, 46}, {1, 3, 6, 7, 8, 9, 11, 12, 13, 16, 17, 18, 19, 21, 22, 23, 24, 25, 29, 30, 31, 34, 35, 36, 38, 41, 43, 44, 45, 46, 47, 48, 50, 51}, {1, 2, 3, 6, 7, 9, 10, 11, 12, 13, 25, 26, 28, 30, 33, 35, 36, 41, 42, 44, 47, 49}, {1, 2, 11, 12, 13, 16, 19, 21, 24, 28, 30, 32, 36, 38, 39, 41, 42, 44, 48, 50}];
RolesDemands = [19];
RolesContinuity = [];
ExamLen = [2, 2, 2, 2, 2, 2, 2, 2, 2, 2];
LunchTsMinLen = 2;
LunchStarts = [6..12];
SupervisorAvailable = 5;
OptimalLunchLenght = [1, 2];
OptimalStartTs = [0, 0];
OptimalFinishTs = [1, 20];
MinimizeRooms = 0;
RolesSoftContinuity = [|1|4|];
SameDegreeInRoom = 0;
Mergeability = 1;
